Minimize
	value: tt

Subject to
tt + 2000 s_1_1 > 0
tt - t_1_1 - 2000.671100 s_1_1 + 0.671100 s_1_6 > -1998.949578
tt + 2000 s_2_1 > 0
tt - t_2_1 - 2001.342200 s_2_1 + 1.342200 s_2_6 > -1994.422752
tt + 2000 s_1_2 > 0
tt - t_1_2 - 2000.671100 s_1_2 + 0.671100 s_1_7 > -1998.733022
tt + 2000 s_2_2 > 0
tt - t_2_2 - 2001.342200 s_2_2 + 1.342200 s_2_7 > -1993.410117
tt + 2000 s_1_3 > 0
tt - t_1_3 - 2000.671100 s_1_3 + 0.671100 s_1_7 > -1998.645331
tt + 2000 s_2_3 > 0
tt - t_2_3 - 2001.342200 s_2_3 + 1.342200 s_2_7 > -1990.769647
tt + 2000 s_1_4 > 0
tt - t_1_4 - 2004.026600 s_1_4 + 4.026600 s_1_7 > -1999.145267
tt + 2000 s_2_4 > 0
tt - t_2_4 - 2008.053200 s_2_4 + 8.053200 s_2_7 > -1994.388413
tt + 2000 s_1_5 > 0
tt - t_1_5 - 2002.684400 s_1_5 + 2.684400 s_1_6 > -1999.253311
tt + 2000 s_2_5 > 0
tt - t_2_5 - 2005.368800 s_2_5 + 5.368800 s_2_6 > -1995.063461
tt + 2000 s_1_6 > 0
tt - t_1_6 - 2000.000000 s_1_6 > -1995.963044
tt + 2000 s_2_6 > 0
tt - t_2_6 - 2000.000000 s_2_6 > -1988.651411
tt + 2000 s_1_7 > 0
tt - t_1_7 - 2000.000000 s_1_7 > -1998.426800
tt + 2000 s_2_7 > 0
tt - t_2_7 - 2000.000000 s_2_7 > -1995.042939
tt + 2000 s_1_8 > 0
tt - t_1_8 - 2030.199500 s_1_8 + 30.199500 s_1_1 > -1999.790200
tt + 2000 s_2_8 > 0
tt - t_2_8 - 2060.399000 s_2_8 + 60.399000 s_2_1 > -1995.809800
s_1_1 + s_2_1  = 1
s_1_2 + s_2_2  = 1
s_1_3 + s_2_3  = 1
s_1_4 + s_2_4  = 1
s_1_5 + s_2_5  = 1
s_1_6 + s_2_6  = 1
s_1_7 + s_2_7  = 1
s_1_8 + s_2_8  = 1
t_1_1 - t_1_2 + 2000.000000 u_1_1_2 - 0.671100 s_1_2 + 0.671100 s_1_7 > 1.266978
t_1_2 - t_1_1 - 2000.000000 u_1_1_2 > -1998.949578
t_2_1 - t_2_2 + 2000.000000 u_2_1_2 - 1.342200 s_2_2 + 1.342200 s_2_7 > 6.589883
t_2_2 - t_2_1 - 2000.000000 u_2_1_2 > -1994.422752
t_1_1 - t_1_3 + 2000.000000 u_1_1_3 - 0.671100 s_1_3 + 0.671100 s_1_7 > 1.354669
t_1_3 - t_1_1 - 2000.000000 u_1_1_3 > -1998.949578
t_2_1 - t_2_3 + 2000.000000 u_2_1_3 - 1.342200 s_2_3 + 1.342200 s_2_7 > 9.230353
t_2_3 - t_2_1 - 2000.000000 u_2_1_3 > -1994.422752
t_1_1 - t_1_4 + 2000.000000 u_1_1_4 - 2.013300 s_1_4 + 2.013300 s_1_7 > 0.854733
t_1_4 - t_1_1 - 2000.000000 u_1_1_4 > -1998.949578
t_2_1 - t_2_4 + 2000.000000 u_2_1_4 - 4.026600 s_2_4 + 4.026600 s_2_7 > 5.611587
t_2_4 - t_2_1 - 2000.000000 u_2_1_4 > -1994.422752
t_1_1 - t_1_5 + 2000.000000 u_1_1_5 - 1.342200 s_1_5 + 1.342200 s_1_6 > 0.746689
t_1_5 - t_1_1 - 2000.000000 u_1_1_5 > -1998.949578
t_2_1 - t_2_5 + 2000.000000 u_2_1_5 - 2.684400 s_2_5 + 2.684400 s_2_6 > 4.936539
t_2_5 - t_2_1 - 2000.000000 u_2_1_5 > -1994.422752
t_1_1 - t_1_6 - 2000.000000 s_1_6 > -1990.785943
t_1_1 - t_2_6 - 2000.000000 s_2_6 > -1978.297208
t_2_1 - t_1_6 - 2000.000000 s_1_6 > -1990.785943
t_2_1 - t_2_6 - 2000.000000 s_2_6 > -1978.297208
t_1_1 - t_1_7 + 2000.000000 u_1_1_7 > 1.573200
t_1_7 - t_1_1 - 2000.000000 u_1_1_7 > -1998.949578
t_2_1 - t_2_7 + 2000.000000 u_2_1_7 > 4.957061
t_2_7 - t_2_1 - 2000.000000 u_2_1_7 > -1994.422752
t_1_8 - t_1_1 - 2000.000000 s_1_1 > -1998.278478
t_1_8 - t_2_1 - 2000.000000 s_2_1 > -1993.080552
t_2_8 - t_1_1 - 2000.000000 s_1_1 > -1998.278478
t_2_8 - t_2_1 - 2000.000000 s_2_1 > -1993.080552
t_1_2 - t_1_1 + 2000.000000 u_1_2_1 - 0.671100 s_1_1 + 0.671100 s_1_6 > 1.050422
t_1_1 - t_1_2 - 2000.000000 u_1_2_1 > -1998.733022
t_2_2 - t_2_1 + 2000.000000 u_2_2_1 - 1.342200 s_2_1 + 1.342200 s_2_6 > 5.577248
t_2_1 - t_2_2 - 2000.000000 u_2_2_1 > -1993.410117
t_1_2 - t_1_3 + 2000.000000 u_1_2_3 - 0.671100 s_1_3 + 0.671100 s_1_7 > 1.354669
t_1_3 - t_1_2 - 2000.000000 u_1_2_3 > -1998.733022
t_2_2 - t_2_3 + 2000.000000 u_2_2_3 - 1.342200 s_2_3 + 1.342200 s_2_7 > 9.230353
t_2_3 - t_2_2 - 2000.000000 u_2_2_3 > -1993.410117
t_1_2 - t_1_4 + 2000.000000 u_1_2_4 - 2.013300 s_1_4 + 2.013300 s_1_7 > 0.854733
t_1_4 - t_1_2 - 2000.000000 u_1_2_4 > -1998.733022
t_2_2 - t_2_4 + 2000.000000 u_2_2_4 - 4.026600 s_2_4 + 4.026600 s_2_7 > 5.611587
t_2_4 - t_2_2 - 2000.000000 u_2_2_4 > -1993.410117
t_1_2 - t_1_5 + 2000.000000 u_1_2_5 - 1.342200 s_1_5 + 1.342200 s_1_6 > 0.746689
t_1_5 - t_1_2 - 2000.000000 u_1_2_5 > -1998.733022
t_2_2 - t_2_5 + 2000.000000 u_2_2_5 - 2.684400 s_2_5 + 2.684400 s_2_6 > 4.936539
t_2_5 - t_2_2 - 2000.000000 u_2_2_5 > -1993.410117
t_1_2 - t_1_6 + 2000.000000 u_1_2_6 > 4.036956
t_1_6 - t_1_2 - 2000.000000 u_1_2_6 > -1998.733022
t_2_2 - t_2_6 + 2000.000000 u_2_2_6 > 11.348589
t_2_6 - t_2_2 - 2000.000000 u_2_2_6 > -1993.410117
t_1_2 - t_1_7 - 2000.000000 s_1_7 > -1995.071300
t_1_2 - t_2_7 - 2000.000000 s_2_7 > -1988.331939
t_2_2 - t_1_7 - 2000.000000 s_1_7 > -1995.071300
t_2_2 - t_2_7 - 2000.000000 s_2_7 > -1988.331939
t_1_8 - t_1_2 - 2000.000000 s_1_2 > -1998.061922
t_1_8 - t_2_2 - 2000.000000 s_2_2 > -1992.067917
t_2_8 - t_1_2 - 2000.000000 s_1_2 > -1998.061922
t_2_8 - t_2_2 - 2000.000000 s_2_2 > -1992.067917
t_1_3 - t_1_1 + 2000.000000 u_1_3_1 - 0.671100 s_1_1 + 0.671100 s_1_6 > 1.050422
t_1_1 - t_1_3 - 2000.000000 u_1_3_1 > -1998.645331
t_2_3 - t_2_1 + 2000.000000 u_2_3_1 - 1.342200 s_2_1 + 1.342200 s_2_6 > 5.577248
t_2_1 - t_2_3 - 2000.000000 u_2_3_1 > -1990.769647
t_1_3 - t_1_2 + 2000.000000 u_1_3_2 - 0.671100 s_1_2 + 0.671100 s_1_7 > 1.266978
t_1_2 - t_1_3 - 2000.000000 u_1_3_2 > -1998.645331
t_2_3 - t_2_2 + 2000.000000 u_2_3_2 - 1.342200 s_2_2 + 1.342200 s_2_7 > 6.589883
t_2_2 - t_2_3 - 2000.000000 u_2_3_2 > -1990.769647
t_1_4 - t_1_3 - 2000.000000 s_1_3 > -1997.974231
t_1_4 - t_2_3 - 2000.000000 s_2_3 > -1989.427447
t_2_4 - t_1_3 - 2000.000000 s_1_3 > -1997.974231
t_2_4 - t_2_3 - 2000.000000 s_2_3 > -1989.427447
t_1_3 - t_1_5 + 2000.000000 u_1_3_5 - 1.342200 s_1_5 + 1.342200 s_1_6 > 0.746689
t_1_5 - t_1_3 - 2000.000000 u_1_3_5 > -1998.645331
t_2_3 - t_2_5 + 2000.000000 u_2_3_5 - 2.684400 s_2_5 + 2.684400 s_2_6 > 4.936539
t_2_5 - t_2_3 - 2000.000000 u_2_3_5 > -1990.769647
t_1_3 - t_1_6 + 2000.000000 u_1_3_6 > 4.036956
t_1_6 - t_1_3 - 2000.000000 u_1_3_6 > -1998.645331
t_2_3 - t_2_6 + 2000.000000 u_2_3_6 > 11.348589
t_2_6 - t_2_3 - 2000.000000 u_2_3_6 > -1990.769647
t_1_3 - t_1_7 - 2000.000000 s_1_7 > -1995.071300
t_1_3 - t_2_7 - 2000.000000 s_2_7 > -1988.331939
t_2_3 - t_1_7 - 2000.000000 s_1_7 > -1995.071300
t_2_3 - t_2_7 - 2000.000000 s_2_7 > -1988.331939
t_1_8 - t_1_3 - 2000.000000 s_1_3 > -1997.974231
t_1_8 - t_2_3 - 2000.000000 s_2_3 > -1989.427447
t_2_8 - t_1_3 - 2000.000000 s_1_3 > -1997.974231
t_2_8 - t_2_3 - 2000.000000 s_2_3 > -1989.427447
t_1_4 - t_1_1 + 2000.000000 u_1_4_1 - 0.671100 s_1_1 + 0.671100 s_1_6 > 1.050422
t_1_1 - t_1_4 - 2000.000000 u_1_4_1 > -1999.145267
t_2_4 - t_2_1 + 2000.000000 u_2_4_1 - 1.342200 s_2_1 + 1.342200 s_2_6 > 5.577248
t_2_1 - t_2_4 - 2000.000000 u_2_4_1 > -1994.388413
t_1_4 - t_1_2 + 2000.000000 u_1_4_2 - 0.671100 s_1_2 + 0.671100 s_1_7 > 1.266978
t_1_2 - t_1_4 - 2000.000000 u_1_4_2 > -1999.145267
t_2_4 - t_2_2 + 2000.000000 u_2_4_2 - 1.342200 s_2_2 + 1.342200 s_2_7 > 6.589883
t_2_2 - t_2_4 - 2000.000000 u_2_4_2 > -1994.388413
t_1_4 - t_1_3 - 2000.000000 s_1_3 > -1997.974231
t_1_4 - t_2_3 - 2000.000000 s_2_3 > -1989.427447
t_2_4 - t_1_3 - 2000.000000 s_1_3 > -1997.974231
t_2_4 - t_2_3 - 2000.000000 s_2_3 > -1989.427447
t_1_4 - t_1_5 + 2000.000000 u_1_4_5 - 1.342200 s_1_5 + 1.342200 s_1_6 > 0.746689
t_1_5 - t_1_4 - 2000.000000 u_1_4_5 > -1999.145267
t_2_4 - t_2_5 + 2000.000000 u_2_4_5 - 2.684400 s_2_5 + 2.684400 s_2_6 > 4.936539
t_2_5 - t_2_4 - 2000.000000 u_2_4_5 > -1994.388413
t_1_4 - t_1_6 + 2000.000000 u_1_4_6 > 4.036956
t_1_6 - t_1_4 - 2000.000000 u_1_4_6 > -1999.145267
t_2_4 - t_2_6 + 2000.000000 u_2_4_6 > 11.348589
t_2_6 - t_2_4 - 2000.000000 u_2_4_6 > -1994.388413
t_1_4 - t_1_7 - 2000.000000 s_1_7 > -1995.071300
t_1_4 - t_2_7 - 2000.000000 s_2_7 > -1988.331939
t_2_4 - t_1_7 - 2000.000000 s_1_7 > -1995.071300
t_2_4 - t_2_7 - 2000.000000 s_2_7 > -1988.331939
t_1_8 - t_1_4 - 2000.000000 s_1_4 > -1997.131967
t_1_8 - t_2_4 - 2000.000000 s_2_4 > -1990.361813
t_2_8 - t_1_4 - 2000.000000 s_1_4 > -1997.131967
t_2_8 - t_2_4 - 2000.000000 s_2_4 > -1990.361813
t_1_5 - t_1_1 + 2000.000000 u_1_5_1 - 0.671100 s_1_1 + 0.671100 s_1_6 > 1.050422
t_1_1 - t_1_5 - 2000.000000 u_1_5_1 > -1999.253311
t_2_5 - t_2_1 + 2000.000000 u_2_5_1 - 1.342200 s_2_1 + 1.342200 s_2_6 > 5.577248
t_2_1 - t_2_5 - 2000.000000 u_2_5_1 > -1995.063461
t_1_5 - t_1_2 + 2000.000000 u_1_5_2 - 0.671100 s_1_2 + 0.671100 s_1_7 > 1.266978
t_1_2 - t_1_5 - 2000.000000 u_1_5_2 > -1999.253311
t_2_5 - t_2_2 + 2000.000000 u_2_5_2 - 1.342200 s_2_2 + 1.342200 s_2_7 > 6.589883
t_2_2 - t_2_5 - 2000.000000 u_2_5_2 > -1995.063461
t_1_5 - t_1_3 + 2000.000000 u_1_5_3 - 0.671100 s_1_3 + 0.671100 s_1_7 > 1.354669
t_1_3 - t_1_5 - 2000.000000 u_1_5_3 > -1999.253311
t_2_5 - t_2_3 + 2000.000000 u_2_5_3 - 1.342200 s_2_3 + 1.342200 s_2_7 > 9.230353
t_2_3 - t_2_5 - 2000.000000 u_2_5_3 > -1995.063461
t_1_5 - t_1_4 + 2000.000000 u_1_5_4 - 2.013300 s_1_4 + 2.013300 s_1_7 > 0.854733
t_1_4 - t_1_5 - 2000.000000 u_1_5_4 > -1999.253311
t_2_5 - t_2_4 + 2000.000000 u_2_5_4 - 4.026600 s_2_4 + 4.026600 s_2_7 > 5.611587
t_2_4 - t_2_5 - 2000.000000 u_2_5_4 > -1995.063461
t_1_5 - t_1_6 - 2000.000000 s_1_6 > -1990.785943
t_1_5 - t_2_6 - 2000.000000 s_2_6 > -1978.297208
t_2_5 - t_1_6 - 2000.000000 s_1_6 > -1990.785943
t_2_5 - t_2_6 - 2000.000000 s_2_6 > -1978.297208
t_1_5 - t_1_7 - 2000.000000 s_1_7 > -1995.071300
t_1_5 - t_2_7 - 2000.000000 s_2_7 > -1988.331939
t_2_5 - t_1_7 - 2000.000000 s_1_7 > -1995.071300
t_2_5 - t_2_7 - 2000.000000 s_2_7 > -1988.331939
t_1_8 - t_1_5 - 2000.000000 s_1_5 > -1997.911111
t_1_8 - t_2_5 - 2000.000000 s_2_5 > -1992.379061
t_2_8 - t_1_5 - 2000.000000 s_1_5 > -1997.911111
t_2_8 - t_2_5 - 2000.000000 s_2_5 > -1992.379061
t_1_1 - t_1_6 - 2000.000000 s_1_6 > -1990.785943
t_1_1 - t_2_6 - 2000.000000 s_2_6 > -1978.297208
t_2_1 - t_1_6 - 2000.000000 s_1_6 > -1990.785943
t_2_1 - t_2_6 - 2000.000000 s_2_6 > -1978.297208
t_1_6 - t_1_2 + 2000.000000 u_1_6_2 - 0.671100 s_1_2 + 0.671100 s_1_7 > 1.266978
t_1_2 - t_1_6 - 2000.000000 u_1_6_2 > -1995.963044
t_2_6 - t_2_2 + 2000.000000 u_2_6_2 - 1.342200 s_2_2 + 1.342200 s_2_7 > 6.589883
t_2_2 - t_2_6 - 2000.000000 u_2_6_2 > -1988.651411
t_1_6 - t_1_3 + 2000.000000 u_1_6_3 - 0.671100 s_1_3 + 0.671100 s_1_7 > 1.354669
t_1_3 - t_1_6 - 2000.000000 u_1_6_3 > -1995.963044
t_2_6 - t_2_3 + 2000.000000 u_2_6_3 - 1.342200 s_2_3 + 1.342200 s_2_7 > 9.230353
t_2_3 - t_2_6 - 2000.000000 u_2_6_3 > -1988.651411
t_1_6 - t_1_4 + 2000.000000 u_1_6_4 - 2.013300 s_1_4 + 2.013300 s_1_7 > 0.854733
t_1_4 - t_1_6 - 2000.000000 u_1_6_4 > -1995.963044
t_2_6 - t_2_4 + 2000.000000 u_2_6_4 - 4.026600 s_2_4 + 4.026600 s_2_7 > 5.611587
t_2_4 - t_2_6 - 2000.000000 u_2_6_4 > -1988.651411
t_1_5 - t_1_6 - 2000.000000 s_1_6 > -1990.785943
t_1_5 - t_2_6 - 2000.000000 s_2_6 > -1978.297208
t_2_5 - t_1_6 - 2000.000000 s_1_6 > -1990.785943
t_2_5 - t_2_6 - 2000.000000 s_2_6 > -1978.297208
t_1_6 - t_1_7 + 2000.000000 u_1_6_7 > 1.573200
t_1_7 - t_1_6 - 2000.000000 u_1_6_7 > -1995.963044
t_2_6 - t_2_7 + 2000.000000 u_2_6_7 > 4.957061
t_2_7 - t_2_6 - 2000.000000 u_2_6_7 > -1988.651411
t_1_7 - t_1_1 + 2000.000000 u_1_7_1 - 0.671100 s_1_1 + 0.671100 s_1_6 > 1.050422
t_1_1 - t_1_7 - 2000.000000 u_1_7_1 > -1998.426800
t_2_7 - t_2_1 + 2000.000000 u_2_7_1 - 1.342200 s_2_1 + 1.342200 s_2_6 > 5.577248
t_2_1 - t_2_7 - 2000.000000 u_2_7_1 > -1995.042939
t_1_2 - t_1_7 - 2000.000000 s_1_7 > -1995.071300
t_1_2 - t_2_7 - 2000.000000 s_2_7 > -1988.331939
t_2_2 - t_1_7 - 2000.000000 s_1_7 > -1995.071300
t_2_2 - t_2_7 - 2000.000000 s_2_7 > -1988.331939
t_1_3 - t_1_7 - 2000.000000 s_1_7 > -1995.071300
t_1_3 - t_2_7 - 2000.000000 s_2_7 > -1988.331939
t_2_3 - t_1_7 - 2000.000000 s_1_7 > -1995.071300
t_2_3 - t_2_7 - 2000.000000 s_2_7 > -1988.331939
t_1_4 - t_1_7 - 2000.000000 s_1_7 > -1995.071300
t_1_4 - t_2_7 - 2000.000000 s_2_7 > -1988.331939
t_2_4 - t_1_7 - 2000.000000 s_1_7 > -1995.071300
t_2_4 - t_2_7 - 2000.000000 s_2_7 > -1988.331939
t_1_5 - t_1_7 - 2000.000000 s_1_7 > -1995.071300
t_1_5 - t_2_7 - 2000.000000 s_2_7 > -1988.331939
t_2_5 - t_1_7 - 2000.000000 s_1_7 > -1995.071300
t_2_5 - t_2_7 - 2000.000000 s_2_7 > -1988.331939
t_1_7 - t_1_6 + 2000.000000 u_1_7_6 > 4.036956
t_1_6 - t_1_7 - 2000.000000 u_1_7_6 > -1998.426800
t_2_7 - t_2_6 + 2000.000000 u_2_7_6 > 11.348589
t_2_6 - t_2_7 - 2000.000000 u_2_7_6 > -1995.042939
t_1_8 - t_1_1 - 2000.000000 s_1_1 > -1998.278478
t_1_8 - t_2_1 - 2000.000000 s_2_1 > -1993.080552
t_2_8 - t_1_1 - 2000.000000 s_1_1 > -1998.278478
t_2_8 - t_2_1 - 2000.000000 s_2_1 > -1993.080552
t_1_8 - t_1_2 - 2000.000000 s_1_2 > -1998.061922
t_1_8 - t_2_2 - 2000.000000 s_2_2 > -1992.067917
t_2_8 - t_1_2 - 2000.000000 s_1_2 > -1998.061922
t_2_8 - t_2_2 - 2000.000000 s_2_2 > -1992.067917
t_1_8 - t_1_3 - 2000.000000 s_1_3 > -1997.974231
t_1_8 - t_2_3 - 2000.000000 s_2_3 > -1989.427447
t_2_8 - t_1_3 - 2000.000000 s_1_3 > -1997.974231
t_2_8 - t_2_3 - 2000.000000 s_2_3 > -1989.427447
t_1_8 - t_1_4 - 2000.000000 s_1_4 > -1997.131967
t_1_8 - t_2_4 - 2000.000000 s_2_4 > -1990.361813
t_2_8 - t_1_4 - 2000.000000 s_1_4 > -1997.131967
t_2_8 - t_2_4 - 2000.000000 s_2_4 > -1990.361813
t_1_8 - t_1_5 - 2000.000000 s_1_5 > -1997.911111
t_1_8 - t_2_5 - 2000.000000 s_2_5 > -1992.379061
t_2_8 - t_1_5 - 2000.000000 s_1_5 > -1997.911111
t_2_8 - t_2_5 - 2000.000000 s_2_5 > -1992.379061
Binary
s_1_1
s_2_1
s_1_2
s_2_2
s_1_3
s_2_3
s_1_4
s_2_4
s_1_5
s_2_5
s_1_6
s_2_6
s_1_7
s_2_7
s_1_8
s_2_8
u_1_1_2
u_2_1_2
u_1_1_3
u_2_1_3
u_1_1_4
u_2_1_4
u_1_1_5
u_2_1_5
u_1_1_7
u_2_1_7
u_1_2_1
u_2_2_1
u_1_2_3
u_2_2_3
u_1_2_4
u_2_2_4
u_1_2_5
u_2_2_5
u_1_2_6
u_2_2_6
u_1_3_1
u_2_3_1
u_1_3_2
u_2_3_2
u_1_3_5
u_2_3_5
u_1_3_6
u_2_3_6
u_1_4_1
u_2_4_1
u_1_4_2
u_2_4_2
u_1_4_5
u_2_4_5
u_1_4_6
u_2_4_6
u_1_5_1
u_2_5_1
u_1_5_2
u_2_5_2
u_1_5_3
u_2_5_3
u_1_5_4
u_2_5_4
u_1_6_2
u_2_6_2
u_1_6_3
u_2_6_3
u_1_6_4
u_2_6_4
u_1_6_7
u_2_6_7
u_1_7_1
u_2_7_1
u_1_7_6
u_2_7_6

End
